WARNING: for repeatability, setting FPU to use double precision
============================[ Problem Statistics ]=============================
|                                                                             |
|  Number of variables:       6472782                                         |
|  Number of clauses:        25795161                                         |
|  Parse time:                   5.97 s                                       |
|                                                                             |
c ============================[ Search Statistics ]==============================
c | Conflicts |          ORIGINAL         |          LEARNT          | Progress |
c |           |    Vars  Clauses Literals |    Limit  Clauses Lit/Cl |          |
c ===============================================================================
c Switched to VSIDS.
c Switched to LRB.
c Switched to VSIDS.
c Switched to LRB.
c Switched to VSIDS.
c Switched to LRB.
c Switched to VSIDS.
c Switched to LRB.
c Switched to VSIDS.
c Switched to LRB.
c Switched to VSIDS.
c Switched to LRB.
c Switched to VSIDS.
c Switched to LRB.
c Switched to VSIDS.
c Switched to LRB.
c Switched to VSIDS.
c Switched to LRB.
c Switched to VSIDS.
c Switched to LRB.
c Switched to VSIDS.
c Switched to LRB.
c Switched to VSIDS.
c Switched to LRB.
c Switched to VSIDS.
c Switched to LRB.
c Switched to VSIDS.
c Switched to LRB.
c Switched to VSIDS.
c Switched to LRB.
c Switched to VSIDS.
c ===============================================================================
restarts                  : 365
conflicts                 : 55215          (16 /sec)
decisions                 : 6522811        (0.00 % random) (1915 /sec)
propagations              : 8300156825     (2436904 /sec)
conflict literals         : 16273294       (19.30 % deleted)

conflicts w/ DIP found    : 51269          (92.85 % of conflicts)
conflicts w/ dangerous DIP: 0              (0.00 % of conflicts)
conflicts w/ DIP-learning : 5996           (10.86 % of conflicts)
decisions on ext vars     : 7125           (0.11 % of decisions)
total ext vars            : 92          
tried delete ext vars     : 53          
deleted ext vars          : 53          
max ext vars              : 39          

Memory used               : 4187.00 MB
CPU time                  : 3406.03 s
DIP computation time      : 1.98958 s (0.06 % of total time)
ER_sel time               : 0.128064 s
ER_add time               : 0.001791 s
ER_delC time              : 0 s
ER_delV time              : 0.043873 s
ER_sub time               : 0.217806 s
ER_stat time              : 0 s

UNSATISFIABLE
